;symbolic execution tree
(push)
(assert (le x3 java.lang.Boolean))
(check-sat)
(push)
(assert (le x2 java.util.Vector))
(check-sat)
(push)
(assert (le x1 weka.core.Instance))
(check-sat)
(pop)
(push)
(assert (not (le x1 weka.core.Instance)))
(check-sat)
(pop)
(push)
(assert (le x1 java.lang.String))
(check-sat)
(pop)
(push)
(assert (not (le x1 java.lang.String)))
(check-sat)
(push)
(assert (le x2 java.util.Vector))
(check-sat)
(pop)
(push)
(assert (not (le x2 java.util.Vector)))
(check-sat)
(pop)
(push)
(assert (le x0 java.io.PrintWriter))
(check-sat)
(pop)
(push)
(assert (not (le x0 java.io.PrintWriter)))
(check-sat)
(pop)
(pop)
(push)
(assert (le x1 weka.core.Instances))
(check-sat)
(pop)
(push)
(assert (not (le x1 weka.core.Instances)))
(check-sat)
(push)
(assert (le x3 java.lang.Boolean))
(check-sat)
(push)
(assert (le x0 java.lang.String))
(check-sat)
(pop)
(push)
(assert (not (le x0 java.lang.String)))
(check-sat)
(pop)
(pop)
(push)
(assert (not (le x3 java.lang.Boolean)))
(check-sat)
(pop)
(pop)
(push)
(assert (le x3 java.lang.Boolean))
(check-sat)
(push)
(assert (le x2 java.util.Vector))
(check-sat)
(push)
(assert (le x2 java.util.Vector))
(check-sat)
(pop)
(push)
(assert (not (le x2 java.util.Vector)))
(check-sat)
(pop)
(push)
(assert (le x3 java.lang.Boolean))
(check-sat)
(pop)
(push)
(assert (not (le x3 java.lang.Boolean)))
(check-sat)
(pop)
(pop)
(push)
(assert (not (le x2 java.util.Vector)))
(check-sat)
(pop)
(push)
(assert (le x1 weka.core.AttributeLocator))
(check-sat)
(pop)
(push)
(assert (not (le x1 weka.core.AttributeLocator)))
(check-sat)
(pop)
(pop)
(push)
(assert (not (le x3 java.lang.Boolean)))
(check-sat)
(pop)
(pop)
(push)
(assert (not (le x2 java.util.Vector)))
(check-sat)
(push)
(assert (le x0 weka.core.Instances))
(check-sat)
(pop)
(push)
(assert (not (le x0 weka.core.Instances)))
(check-sat)
(push)
(assert (le x0 weka.core.Instances))
(check-sat)
(pop)
(push)
(assert (not (le x0 weka.core.Instances)))
(check-sat)
(pop)
(pop)
(push)
(assert (le x3 java.lang.Boolean))
(check-sat)
(push)
(assert (le x1 weka.core.Attribute))
(check-sat)
(push)
(assert (le x3 java.lang.Boolean))
(check-sat)
(pop)
(push)
(assert (not (le x3 java.lang.Boolean)))
(check-sat)
(pop)
(pop)
(push)
(assert (not (le x1 weka.core.Attribute)))
(check-sat)
(pop)
(push)
(assert (le x1 weka.core.FastVector))
(check-sat)
(pop)
(push)
(assert (not (le x1 weka.core.FastVector)))
(check-sat)
(pop)
(pop)
(push)
(assert (not (le x3 java.lang.Boolean)))
(check-sat)
(pop)
(push)
(assert (le x2 java.util.Vector))
(check-sat)
(pop)
(push)
(assert (not (le x2 java.util.Vector)))
(check-sat)
(push)
(assert (le x3 java.lang.Boolean))
(check-sat)
(pop)
(push)
(assert (not (le x3 java.lang.Boolean)))
(check-sat)
(pop)
(pop)
(pop)
(push)
(assert (le x2 java.lang.StringBuilder))
(check-sat)
(push)
(assert (le x2 java.lang.StringBuilder))
(check-sat)
(push)
(assert (le x1 java.lang.Boolean))
(check-sat)
(pop)
(push)
(assert (not (le x1 java.lang.Boolean)))
(check-sat)
(pop)
(pop)
(push)
(assert (not (le x2 java.lang.StringBuilder)))
(check-sat)
(pop)
(push)
(assert (le x3 java.lang.Boolean))
(check-sat)
(push)
(assert (le x1 java.util.Vector))
(check-sat)
(pop)
(push)
(assert (not (le x1 java.util.Vector)))
(check-sat)
(pop)
(push)
(assert (le x1 java.lang.StringBuilder))
(check-sat)
(pop)
(push)
(assert (not (le x1 java.lang.StringBuilder)))
(check-sat)
(pop)
(push)
(assert (le x0 weka.core.FastVector))
(check-sat)
(push)
(assert (le x2 java.lang.StringBuilder))
(check-sat)
(pop)
(push)
(assert (not (le x2 java.lang.StringBuilder)))
(check-sat)
(pop)
(pop)
(push)
(assert (not (le x0 weka.core.FastVector)))
(check-sat)
(pop)
(pop)
(push)
(assert (not (le x3 java.lang.Boolean)))
(check-sat)
(pop)
(pop)
(push)
(assert (not (le x2 java.lang.StringBuilder)))
(check-sat)
(push)
(assert (le x2 java.lang.StringBuilder))
(check-sat)
(pop)
(push)
(assert (not (le x2 java.lang.StringBuilder)))
(check-sat)
(push)
(assert (le x0 weka.core.Instances))
(check-sat)
(pop)
(push)
(assert (not (le x0 weka.core.Instances)))
(check-sat)
(pop)
(pop)
(push)
(assert (le x0 java.util.Vector))
(check-sat)
(push)
(assert (le x3 java.lang.Boolean))
(check-sat)
(pop)
(push)
(assert (not (le x3 java.lang.Boolean)))
(check-sat)
(pop)
(pop)
(push)
(assert (not (le x0 java.util.Vector)))
(check-sat)
(push)
(assert (le x0 java.util.Vector))
(check-sat)
(pop)
(push)
(assert (not (le x0 java.util.Vector)))
(check-sat)
(push)
(assert (le x2 java.lang.StringBuilder))
(check-sat)
(pop)
(push)
(assert (not (le x2 java.lang.StringBuilder)))
(check-sat)
(pop)
(pop)
(push)
(assert (le x1 java.lang.Boolean))
(check-sat)
(pop)
(push)
(assert (not (le x1 java.lang.Boolean)))
(check-sat)
(pop)
(pop)
(push)
(assert (le x2 java.lang.StringBuilder))
(check-sat)
(pop)
(push)
(assert (not (le x2 java.lang.StringBuilder)))
(check-sat)
(pop)
(pop)
(pop)
(push)
(assert (not (le x3 java.lang.Boolean)))
(check-sat)
(push)
(assert (le x1 java.util.Vector))
(check-sat)
(pop)
(push)
(assert (not (le x1 java.util.Vector)))
(check-sat)
(push)
(assert (le x3 java.lang.Boolean))
(check-sat)
(pop)
(push)
(assert (not (le x3 java.lang.Boolean)))
(check-sat)
(push)
(assert (le x2 java.lang.StringBuilder))
(check-sat)
(push)
(assert (le x3 java.lang.Boolean))
(check-sat)
(pop)
(push)
(assert (not (le x3 java.lang.Boolean)))
(check-sat)
(pop)
(pop)
(push)
(assert (not (le x2 java.lang.StringBuilder)))
(check-sat)
(pop)
(pop)
(pop)
(push)
(assert (le x1 weka.core.FastVector))
(check-sat)
(pop)
(push)
(assert (not (le x1 weka.core.FastVector)))
(check-sat)
(push)
(assert (le x3 java.lang.Boolean))
(check-sat)
(pop)
(push)
(assert (not (le x3 java.lang.Boolean)))
(check-sat)
(pop)
(push)
(assert (le x2 java.lang.Object))
(check-sat)
(pop)
(push)
(assert (not (le x2 java.lang.Object)))
(check-sat)
(push)
(assert (le x3 java.lang.Boolean))
(check-sat)
(pop)
(push)
(assert (not (le x3 java.lang.Boolean)))
(check-sat)
(pop)
(push)
(assert (le x2 weka.core.Instance))
(check-sat)
(pop)
(push)
(assert (not (le x2 weka.core.Instance)))
(check-sat)
(pop)
(pop)
(pop)
(push)
(assert (le x0 weka.core.Queue_currencysign_QueueNode))
(check-sat)
(push)
(assert (le x2 java.util.Properties))
(check-sat)
(pop)
(push)
(assert (not (le x2 java.util.Properties)))
(check-sat)
(push)
(assert (le x3 java.lang.Boolean))
(check-sat)
(pop)
(push)
(assert (not (le x3 java.lang.Boolean)))
(check-sat)
(pop)
(push)
(assert (le x2 java.util.Properties))
(check-sat)
(pop)
(push)
(assert (not (le x2 java.util.Properties)))
(check-sat)
(pop)
(pop)
(push)
(assert (le x1 java.lang.Boolean))
(check-sat)
(pop)
(push)
(assert (not (le x1 java.lang.Boolean)))
(check-sat)
(push)
(assert (le x2 weka.core.Instance))
(check-sat)
(pop)
(push)
(assert (not (le x2 weka.core.Instance)))
(check-sat)
(pop)
(pop)
(push)
(assert (le x0 weka.core.Instances))
(check-sat)
(pop)
(push)
(assert (not (le x0 weka.core.Instances)))
(check-sat)
(pop)
(push)
(assert (le x3 java.lang.Boolean))
(check-sat)
(pop)
(push)
(assert (not (le x3 java.lang.Boolean)))
(check-sat)
(pop)
(push)
(assert (le x2 weka.core.Instance))
(check-sat)
(push)
(assert (le x1 weka.core.Queue_currencysign_QueueNode))
(check-sat)
(pop)
(push)
(assert (not (le x1 weka.core.Queue_currencysign_QueueNode)))
(check-sat)
(pop)
(pop)
(push)
(assert (not (le x2 weka.core.Instance)))
(check-sat)
(pop)
(push)
(assert (le x0 weka.core.Queue_currencysign_QueueNode))
(check-sat)
(push)
(assert (le x0 weka.core.Queue_currencysign_QueueNode))
(check-sat)
(pop)
(push)
(assert (not (le x0 weka.core.Queue_currencysign_QueueNode)))
(check-sat)
(pop)
(pop)
(push)
(assert (not (le x0 weka.core.Queue_currencysign_QueueNode)))
(check-sat)
(pop)
(push)
(assert (le x3 java.lang.Boolean))
(check-sat)
(pop)
(push)
(assert (not (le x3 java.lang.Boolean)))
(check-sat)
(push)
(assert (le x2 weka.core.FastVector))
(check-sat)
(pop)
(push)
(assert (not (le x2 weka.core.FastVector)))
(check-sat)
(pop)
(push)
(assert (le x0 weka.core.Queue_currencysign_QueueNode))
(check-sat)
(pop)
(push)
(assert (not (le x0 weka.core.Queue_currencysign_QueueNode)))
(check-sat)
(pop)
(pop)
(pop)
(push)
(assert (not (le x0 weka.core.Queue_currencysign_QueueNode)))
(check-sat)
(pop)
(push)
(assert (le x0 java.lang.String))
(check-sat)
(push)
(assert (le x2 java.util.Vector))
(check-sat)
(push)
(assert (le x3 java.lang.Boolean))
(check-sat)
(pop)
(push)
(assert (not (le x3 java.lang.Boolean)))
(check-sat)
(pop)
(pop)
(push)
(assert (not (le x2 java.util.Vector)))
(check-sat)
(pop)
(push)
(assert (le x3 java.lang.Boolean))
(check-sat)
(pop)
(push)
(assert (not (le x3 java.lang.Boolean)))
(check-sat)
(push)
(assert (le x2 weka.core.Instance))
(check-sat)
(pop)
(push)
(assert (not (le x2 weka.core.Instance)))
(check-sat)
(pop)
(push)
(assert (le x1 java.util.Vector))
(check-sat)
(pop)
(push)
(assert (not (le x1 java.util.Vector)))
(check-sat)
(pop)
(pop)
(push)
(assert (le x0 java.lang.String))
(check-sat)
(push)
(assert (le x3 java.lang.Boolean))
(check-sat)
(pop)
(push)
(assert (not (le x3 java.lang.Boolean)))
(check-sat)
(pop)
(push)
(assert (le x2 java.util.Vector))
(check-sat)
(push)
(assert (le x2 java.util.Vector))
(check-sat)
(pop)
(push)
(assert (not (le x2 java.util.Vector)))
(check-sat)
(pop)
(pop)
(push)
(assert (not (le x2 java.util.Vector)))
(check-sat)
(pop)
(push)
(assert (le x2 java.lang.StringBuilder))
(check-sat)
(pop)
(push)
(assert (not (le x2 java.lang.StringBuilder)))
(check-sat)
(push)
(assert (le x2 java.lang.StringBuilder))
(check-sat)
(pop)
(push)
(assert (not (le x2 java.lang.StringBuilder)))
(check-sat)
(pop)
(pop)
(pop)
(push)
(assert (not (le x0 java.lang.String)))
(check-sat)
(pop)
(push)
(assert (le x3 java.lang.Boolean))
(check-sat)
(pop)
(push)
(assert (not (le x3 java.lang.Boolean)))
(check-sat)
(pop)
(push)
(assert (le x3 java.lang.Boolean))
(check-sat)
(pop)
(push)
(assert (not (le x3 java.lang.Boolean)))
(check-sat)
(pop)
(push)
(assert (le x0 java.lang.String))
(check-sat)
(push)
(assert (le x1 weka.estimators.KernelEstimator))
(check-sat)
(pop)
(push)
(assert (not (le x1 weka.estimators.KernelEstimator)))
(check-sat)
(push)
(assert (le x1 weka.estimators.KernelEstimator))
(check-sat)
(pop)
(push)
(assert (not (le x1 weka.estimators.KernelEstimator)))
(check-sat)
(pop)
(pop)
(pop)
(push)
(assert (not (le x0 java.lang.String)))
(check-sat)
(pop)
(pop)
(push)
(assert (not (le x0 java.lang.String)))
(check-sat)
(push)
(assert (le x0 java.lang.String))
(check-sat)
(pop)
(push)
(assert (not (le x0 java.lang.String)))
(check-sat)
(pop)
(push)
(assert (le x0 java.lang.String))
(check-sat)
(pop)
(push)
(assert (not (le x0 java.lang.String)))
(check-sat)
(push)
(assert (le x2 weka.core.Instance))
(check-sat)
(pop)
(push)
(assert (not (le x2 weka.core.Instance)))
(check-sat)
(pop)
(pop)
(push)
(assert (le x2 java.lang.StringBuilder))
(check-sat)
(pop)
(push)
(assert (not (le x2 java.lang.StringBuilder)))
(check-sat)
(pop)
(pop)
(push)
(assert (le x2 weka.core.Instances))
(check-sat)
(pop)
(push)
(assert (not (le x2 weka.core.Instances)))
(check-sat)
(push)
(assert (le x0 weka.core.Instance))
(check-sat)
(pop)
(push)
(assert (not (le x0 weka.core.Instance)))
(check-sat)
(pop)
(push)
(assert (le x0 weka.core.Instances))
(check-sat)
(pop)
(push)
(assert (not (le x0 weka.core.Instances)))
(check-sat)
(pop)
(push)
(assert (le x1 weka.core.AttributeLocator))
(check-sat)
(push)
(assert (le x3 java.lang.Boolean))
(check-sat)
(pop)
(push)
(assert (not (le x3 java.lang.Boolean)))
(check-sat)
(pop)
(push)
(assert (le x2 weka.core.Instances))
(check-sat)
(pop)
(push)
(assert (not (le x2 weka.core.Instances)))
(check-sat)
(pop)
(push)
(assert (le x1 weka.core.AttributeLocator))
(check-sat)
(pop)
(push)
(assert (not (le x1 weka.core.AttributeLocator)))
(check-sat)
(pop)
(pop)
(push)
(assert (not (le x1 weka.core.AttributeLocator)))
(check-sat)
(pop)
(pop)
(push)
(assert (le x3 java.lang.Boolean))
(check-sat)
(pop)
(push)
(assert (not (le x3 java.lang.Boolean)))
(check-sat)
(pop)
(push)
(assert (le x2 java.lang.String))
(check-sat)
(push)
(assert (le x3 java.lang.Boolean))
(check-sat)
(pop)
(push)
(assert (not (le x3 java.lang.Boolean)))
(check-sat)
(pop)
(pop)
(push)
(assert (not (le x2 java.lang.String)))
(check-sat)
(push)
(assert (le x1 java.util.Vector))
(check-sat)
(push)
(assert (le x1 java.util.Vector))
(check-sat)
(push)
(assert (le x3 java.lang.Boolean))
(check-sat)
(pop)
(push)
(assert (not (le x3 java.lang.Boolean)))
(check-sat)
(pop)
(pop)
(push)
(assert (not (le x1 java.util.Vector)))
(check-sat)
(pop)
(push)
(assert (le x2 java.lang.String))
(check-sat)
(pop)
(push)
(assert (not (le x2 java.lang.String)))
(check-sat)
(pop)
(pop)
(push)
(assert (not (le x1 java.util.Vector)))
(check-sat)
(pop)
(push)
(assert (le x2 java.lang.String))
(check-sat)
(pop)
(push)
(assert (not (le x2 java.lang.String)))
(check-sat)
(push)
(assert (le x3 java.lang.Boolean))
(check-sat)
(pop)
(push)
(assert (not (le x3 java.lang.Boolean)))
(check-sat)
(pop)
(pop)
(push)
(assert (le x0 java.lang.String))
(check-sat)
(pop)
(push)
(assert (not (le x0 java.lang.String)))
(check-sat)
(push)
(assert (le x0 java.lang.String))
(check-sat)
(pop)
(push)
(assert (not (le x0 java.lang.String)))
(check-sat)
(pop)
(pop)
(push)
(assert (le x2 java.lang.String))
(check-sat)
(pop)
(push)
(assert (not (le x2 java.lang.String)))
(check-sat)
(pop)
(pop)
(push)
(assert (le x2 java.lang.StringBuffer))
(check-sat)
(pop)
(push)
(assert (not (le x2 java.lang.StringBuffer)))
(check-sat)
(push)
(assert (le x2 java.lang.StringBuffer))
(check-sat)
(pop)
(push)
(assert (not (le x2 java.lang.StringBuffer)))
(check-sat)
(push)
(assert (le x1 java.lang.String))
(check-sat)
(pop)
(push)
(assert (not (le x1 java.lang.String)))
(check-sat)
(pop)
(pop)
(push)
(assert (le x3 java.lang.Boolean))
(check-sat)
(pop)
(push)
(assert (not (le x3 java.lang.Boolean)))
(check-sat)
(push)
(assert (le x3 java.lang.Boolean))
(check-sat)
(pop)
(push)
(assert (not (le x3 java.lang.Boolean)))
(check-sat)
(pop)
(pop)
(pop)
(push)
(assert (le x3 java.lang.Boolean))
(check-sat)
(pop)
(push)
(assert (not (le x3 java.lang.Boolean)))
(check-sat)
(pop)
(push)
(assert (le x3 java.lang.Boolean))
(check-sat)
(pop)
(push)
(assert (not (le x3 java.lang.Boolean)))
(check-sat)
(pop)
(push)
(assert (le x2 weka.core.FastVector))
(check-sat)
(push)
(assert (le x2 weka.core.FastVector))
(check-sat)
(pop)
(push)
(assert (not (le x2 weka.core.FastVector)))
(check-sat)
(pop)
(push)
(assert (le x2 weka.core.FastVector))
(check-sat)
(push)
(assert (le x2 weka.core.FastVector))
(check-sat)
(pop)
(push)
(assert (not (le x2 weka.core.FastVector)))
(check-sat)
(pop)
(push)
(assert (le x0 weka.core.Instance))
(check-sat)
(push)
(assert (le x3 java.lang.Boolean))
(check-sat)
(pop)
(push)
(assert (not (le x3 java.lang.Boolean)))
(check-sat)
(pop)
(pop)
(push)
(assert (not (le x0 weka.core.Instance)))
(check-sat)
(pop)
(pop)
(push)
(assert (not (le x2 weka.core.FastVector)))
(check-sat)
(pop)
(pop)
(push)
(assert (not (le x2 weka.core.FastVector)))
(check-sat)
(pop)
(push)
(assert (le x0 java.lang.String))
(check-sat)
(push)
(assert (le x2 java.lang.Object))
(check-sat)
(push)
(assert (le x3 java.lang.Boolean))
(check-sat)
(pop)
(push)
(assert (not (le x3 java.lang.Boolean)))
(check-sat)
(pop)
(pop)
(push)
(assert (not (le x2 java.lang.Object)))
(check-sat)
(pop)
(push)
(assert (le x3 java.lang.Boolean))
(check-sat)
(pop)
(push)
(assert (not (le x3 java.lang.Boolean)))
(check-sat)
(push)
(assert (not (le x1 weka.core.SerializedObject)))
(check-sat)
(pop)
(push)
(assert (le x1 weka.core.SerializedObject))
(check-sat)
(push)
(assert (le x3 java.lang.Boolean))
(check-sat)
(pop)
(push)
(assert (not (le x3 java.lang.Boolean)))
(check-sat)
(pop)
(pop)
(pop)
(pop)
(push)
(assert (not (le x0 java.lang.String)))
(check-sat)
(push)
(assert (le x1 java.util.Vector))
(check-sat)
(pop)
(push)
(assert (not (le x1 java.util.Vector)))
(check-sat)
(pop)
(push)
(assert (le x3 java.lang.Boolean))
(check-sat)
(pop)
(push)
(assert (not (le x3 java.lang.Boolean)))
(check-sat)
(pop)
(pop)
(push)
(assert (le x0 java.util.Vector))
(check-sat)
(pop)
(push)
(assert (not (le x0 java.util.Vector)))
(check-sat)
(pop)
(push)
(assert (le x3 java.lang.Boolean))
(check-sat)
(pop)
(push)
(assert (not (le x3 java.lang.Boolean)))
(check-sat)
(pop)
(push)
(assert (le x1 weka.core.Instances))
(check-sat)
(pop)
(push)
(assert (not (le x1 weka.core.Instances)))
(check-sat)
(push)
(assert (le x0 java.lang.String))
(check-sat)
(push)
(assert (le x1 weka.core.Instances))
(check-sat)
(pop)
(push)
(assert (not (le x1 weka.core.Instances)))
(check-sat)
(pop)
(pop)
(push)
(assert (not (le x0 java.lang.String)))
(check-sat)
(pop)
(push)
(assert (le x3 java.lang.Boolean))
(check-sat)
(pop)
(push)
(assert (not (le x3 java.lang.Boolean)))
(check-sat)
(pop)
(pop)
(pop)
